p edge 70 168
e 1 67
e 1 68
e 1 47
e 1 48
e 1 19
e 1 20
e 1 23
e 1 24
e 1 27
e 1 28
e 2 69
e 2 70
e 2 49
e 2 50
e 2 21
e 2 22
e 2 25
e 2 26
e 2 29
e 2 30
e 3 55
e 3 47
e 3 49
e 3 23
e 3 56
e 3 25
e 3 31
e 3 32
e 4 33
e 4 34
e 4 48
e 4 50
e 4 58
e 4 24
e 4 57
e 4 26
e 5 43
e 5 44
e 5 15
e 5 16
e 5 50
e 5 51
e 5 52
e 5 47
e 5 27
e 5 29
e 5 63
e 5 64
e 6 65
e 6 49
e 6 66
e 6 45
e 6 46
e 6 48
e 6 17
e 6 18
e 6 53
e 6 54
e 6 28
e 6 30
e 7 33
e 7 35
e 7 36
e 7 39
e 7 40
e 7 15
e 7 17
e 7 51
e 7 53
e 7 55
e 7 57
e 7 59
e 7 60
e 7 31
e 8 34
e 8 37
e 8 38
e 8 41
e 8 42
e 8 16
e 8 18
e 8 52
e 8 54
e 8 56
e 8 58
e 8 61
e 8 62
e 8 32
e 9 65
e 9 34
e 9 35
e 9 37
e 9 39
e 9 41
e 9 43
e 9 45
e 9 19
e 9 21
e 9 63
e 9 23
e 9 26
e 9 31
e 10 33
e 10 66
e 10 36
e 10 38
e 10 40
e 10 42
e 10 44
e 10 46
e 10 20
e 10 22
e 10 24
e 10 25
e 10 64
e 10 32
e 11 66
e 11 67
e 11 69
e 11 39
e 11 42
e 11 51
e 11 19
e 11 22
e 11 59
e 11 61
e 11 63
e 11 54
e 12 20
e 12 65
e 12 68
e 12 70
e 12 40
e 12 41
e 12 52
e 12 21
e 12 53
e 12 60
e 12 62
e 12 64
e 13 35
e 13 67
e 13 38
e 13 43
e 13 46
e 13 15
e 13 62
e 13 18
e 13 59
e 13 55
e 13 58
e 13 27
e 13 30
e 13 70
e 14 36
e 14 37
e 14 61
e 14 44
e 14 45
e 14 16
e 14 17
e 14 60
e 14 68
e 14 56
e 14 57
e 14 69
e 14 28
e 14 29